TOUR_SECTION
122
118
62
92
82
32
69
172
193
199
100
171
148
119
96
7
28
127
75
94
23
1
156
22
186
17
54
46
106
167
134
150
16
155
6
144
188
88
170
101
99
102
194
11
86
175
125
183
30
198
81
42
83
136
33
162
3
97
135
117
57
98
18
114
130
126
177
19
147
10
53
145
200
159
65
179
111
104
59
12
34
26
124
70
140
113
178
37
142
95
56
149
151
182
80
79
153
195
107
196
180
68
14
60
137
73
187
143
25
128
84
4
165
90
58
184
52
44
189
161
163
103
116
29
139
197
39
67
72
71
192
110
24
85
5
154
168
50
109
49
174
108
160
48
8
64
87
76
40
158
129
173
2
115
131
138
191
164
166
123
21
74
190
15
66
9
45
132
121
38
146
51
20
77
185
169
112
35
43
120
31
133
41
152
13
61
47
55
36
89
78
141
63
176
105
93
27
181
157
91
-1
EOF